 &CONTROL
    pseudo_dir = 'root/q-e/SSSP_pseudos'
 /

 &SYSTEM
    ibrav = 2
    A = 5.431
    nat = 2
    ntyp = 1
    ecutwfc = 18.0
 /

 &ELECTRONS
 /

ATOMIC_SPECIES
 Si  28.085  Si.pbe-n-rrkjus_psl.1.0.0.UPF

ATOMIC_POSITIONS crystal
 Si 0.00 0.00 0.00
 Si 0.25 0.25 0.25

K_POINTS automatic
  4 4 4 1 1 1
